ALGO = normal
IBRION = -1
NBANDS = 80
EDIFF = 1e-6
NELMIN = 10
ENCUT = 250
ISPIN = 1
LASPH = True
LREAL = Auto
LWAVE = .TRUE.
NELM = 100
NSW = 1
PREC = normal
SIGMA = 0.05
LCHARG = .TRUE.
KPAR = 4
! NSCF
ICHARG = 11
