ALGO = normal
NBANDS = 14
EDIFF = 1e-6
NELMIN = 10
ENCUT = 250
IBRION = 2
ISIF = 3
ISPIN = 2
NUPDOWN = 1
LASPH = True
LORBIT = 11
LREAL = Auto
LWAVE = .TRUE.
!LCHARG = .TRUE.
NELM = 100
PREC = Accurate
SIGMA = 0.05
LCHARG = .TRUE.
KPAR = 4
! NSCF
ICHARG = 11
