Si
 1.0000000000000000
     0.0000000000000000    5.4687279999999996    5.4687279999999996
     5.4687279999999996    0.0000000000000000    5.4687279999999996
     5.4687279999999996    5.4687279999999996    0.0000000000000000
 Si
  16
Cartesian
  1.5671820000000001  1.5671820000000001  4.3015460000000001
  2.7343639999999998  0.0000000000000000  0.0000000000000000
  4.1015459999999999  4.1015459999999999  4.1015459999999999
  5.4687279999999996  2.7343639999999998  0.0000000000000000
  4.1015459999999999  1.3671820000000001  6.8359100000000002
  5.4687279999999996  0.0000000000000000  2.7343639999999998
  6.8359100000000002  4.1015459999999999  6.8359100000000002
  8.2030919999999998  2.7343639999999998  2.7343639999999998
  1.3671820000000001  4.1015459999999999  6.8359100000000002
  2.7343639999999998  2.7343639999999998  2.7343639999999998
  4.1015459999999999  6.8359100000000002  6.8359100000000002
  5.4687279999999996  5.4687279999999996  2.7343639999999998
  4.1015459999999999  4.1015459999999999  9.5702739999999995
  5.4687279999999996  2.7343639999999998  5.4687279999999996
  6.8359100000000002  6.8359100000000002  9.5702739999999995
  8.2030919999999998  5.4687279999999996  5.4687279999999996
