Na20 Bi20 S40                           
   1.0000000000000000     
    11.5714830000000006    5.7857419999999999    5.7857419999999999
     0.0000000000000000   -5.7857419999999999    5.7857419999999999
     5.7857419999999999  -11.5714830000000006  -11.5714830000000006
   Na   Bi   S 
    20    20    40
Direct
  0.2528943891733347  0.7526587246759135  0.0051015403376093
  0.3538151765985694  0.7517041849569414  0.8027155859065022
  0.2966164158472481  0.5036816607791629  0.3942375923630922
  0.5023671673621467  0.5047876312358938  0.0025443706486007
  0.6025488768339544  0.5005204267480928  0.8023773839369398
  0.6642455851116913  0.7563654206625875  0.2102764671553365
  0.7548488970175673  0.7497467510965722  0.0043817395862265
  0.8509603500592308  0.7476681378762813  0.8007778553256464
  0.9457684054854900  0.7533919426545953  0.5926322117782716
  0.4011855110223386  0.9993347946208794  0.1986865500145918
  0.7021239315020564  0.9987363926633144  0.5971309650701180
  0.5502003024269917  0.2525669415612884  0.3958993021147373
  0.8063514568803013  0.5119918674451124  0.3910999314571635
  0.9024185106403990  0.5167506373101798  0.2098425633981433
  0.0365613711075931  0.7433941807132886  0.3890601646658242
  0.1432190163148717  0.7462475260968264  0.2010854662028779
  0.8015739870096591  0.9863466530083331  0.3864025418204715
  0.8996922226639279  0.9770108511196982  0.2116659740730050
  0.0040158103551804  0.9958970545343628  0.0071866017664305
  0.0414325368390120  0.2541714609037979  0.3919720004548156
  0.1907783871216261  0.5072725209370004  0.5951731145792498
  0.4597458742213952  0.7534143731721141  0.6012318078320767
  0.1916797189918615  0.0022053515838750  0.5903335652364963
  0.2480998213749808  0.2367277809876762  0.0156273300790243
  0.3494195330608558  0.2476617598119813  0.8088280108311002
  0.4517873634922204  0.2579001759180427  0.6053739185242293
  0.4119329827409664  0.5189107060572001  0.1904795884785195
  0.7097470659163755  0.5039338885708222  0.5907473212351828
  0.5537893357322391  0.7689811989817893  0.3914342281301157
  0.2948084929946528  0.9959600012837262  0.3837641408164240
  0.5092989059532310  0.9872273326017948  0.9993421051591542
  0.6067007731816380  0.9930972061795936  0.8008469622945712
  0.6696511863287675  0.2559757742974261  0.2037159241696643
  0.7564650086511762  0.2628288884023364  0.0075793561726005
  0.8445723585108138  0.2471757706364448  0.8001273132677879
  0.9459542842613597  0.2537906567047016  0.5921089737744062
  0.9936608728744688  0.5100735760116757  0.0120504689006087
  0.1048100131615531  0.5142097456665167  0.8008969675243158
  0.0888623858433126  0.9983811165091241  0.8002041490895762
  0.1503796795574228  0.2615303162715679  0.2153988007730390
  0.2924007747763470  0.4946785790544674  0.8873851963893632
  0.3527484657528044  0.7596408691964515  0.3049092387945577
  0.4523085020813343  0.7432404218873010  0.1010156946689819
  0.5538514867609318  0.7692822060626416  0.9066607695339519
  0.3007467640890289  0.0130057900800158  0.8973872329407678
  0.3395631501702945  0.2405336311774888  0.3016826461076848
  0.4364463980408874  0.2662834861140509  0.0994634513580437
  0.5407128434291769  0.2376325581927976  0.9026503991173308
  0.4053169548652986  0.4860158766378755  0.6980796495226014
  0.5012444309816753  0.4949679381726165  0.5098128147153433
  0.5860963633207675  0.5027016596844504  0.2925724180327336
  0.7001147793025883  0.4762522406620874  0.0992645258255877
  0.8012538289442329  0.4867700247065079  0.9019487866375355
  0.6402087520809948  0.7566797522021705  0.7012940259649758
  0.7433087244715513  0.7356923049310343  0.5018904149523900
  0.8514011377921976  0.7475081802057617  0.3012859164224201
  0.9520132507644228  0.7377029253919536  0.0916771811661869
  0.0575715118877709  0.7478393727178402  0.8913105538948941
  0.4030598854570972  0.9982608092364367  0.6989554844794792
  0.5000173331405179  0.9837755174702866  0.5027243445046016
  0.5956665403994954  0.9960553207250250  0.3086966209370257
  0.6927491746577125  0.0123263858931644  0.0960820861808897
  0.7945302372543712  0.0038584719308676  0.8905832865308040
  0.6491109741361861  0.2409376795675727  0.7043740009686891
  0.7587376388370890  0.2660528218593241  0.5056269972317041
  0.8386864234675766  0.2478624967601013  0.2916332649432440
  0.9427076569123803  0.2600808648172194  0.0921534180869695
  0.0439126194222552  0.2359180705836635  0.8900955365867270
  0.8953342509791727  0.4971897795617307  0.6990536508672442
  0.0089123088845167  0.4897851063235992  0.5087883219274821
  0.1060848630298863  0.4858868269622065  0.2989250990896339
  0.1931972306490507  0.4899229043879518  0.0977321985700463
  0.1494361497355979  0.7379177132122100  0.6996736061673926
  0.2402673583488530  0.7507648894918888  0.5049082176449077
  0.9065819382900948  0.0069889393080760  0.7051097132164086
  0.0074080122507348  0.0158571802857422  0.5065571002585405
  0.1103822896777538  0.0041173719258066  0.3014697636832831
  0.2036359703987911  0.0075217561293237  0.0953497936487347
  0.1524196927413457  0.2490375679887015  0.7003126887674264
  0.2548733675947462  0.2432213272530815  0.5105600347188264

  0.00000000E+00  0.00000000E+00  0.00000000E+00
  0.00000000E+00  0.00000000E+00  0.00000000E+00
  0.00000000E+00  0.00000000E+00  0.00000000E+00
  0.00000000E+00  0.00000000E+00  0.00000000E+00
  0.00000000E+00  0.00000000E+00  0.00000000E+00
  0.00000000E+00  0.00000000E+00  0.00000000E+00
  0.00000000E+00  0.00000000E+00  0.00000000E+00
  0.00000000E+00  0.00000000E+00  0.00000000E+00
  0.00000000E+00  0.00000000E+00  0.00000000E+00
  0.00000000E+00  0.00000000E+00  0.00000000E+00
  0.00000000E+00  0.00000000E+00  0.00000000E+00
  0.00000000E+00  0.00000000E+00  0.00000000E+00
  0.00000000E+00  0.00000000E+00  0.00000000E+00
  0.00000000E+00  0.00000000E+00  0.00000000E+00
  0.00000000E+00  0.00000000E+00  0.00000000E+00
  0.00000000E+00  0.00000000E+00  0.00000000E+00
  0.00000000E+00  0.00000000E+00  0.00000000E+00
  0.00000000E+00  0.00000000E+00  0.00000000E+00
  0.00000000E+00  0.00000000E+00  0.00000000E+00
  0.00000000E+00  0.00000000E+00  0.00000000E+00
  0.00000000E+00  0.00000000E+00  0.00000000E+00
  0.00000000E+00  0.00000000E+00  0.00000000E+00
  0.00000000E+00  0.00000000E+00  0.00000000E+00
  0.00000000E+00  0.00000000E+00  0.00000000E+00
  0.00000000E+00  0.00000000E+00  0.00000000E+00
  0.00000000E+00  0.00000000E+00  0.00000000E+00
  0.00000000E+00  0.00000000E+00  0.00000000E+00
  0.00000000E+00  0.00000000E+00  0.00000000E+00
  0.00000000E+00  0.00000000E+00  0.00000000E+00
  0.00000000E+00  0.00000000E+00  0.00000000E+00
  0.00000000E+00  0.00000000E+00  0.00000000E+00
  0.00000000E+00  0.00000000E+00  0.00000000E+00
  0.00000000E+00  0.00000000E+00  0.00000000E+00
  0.00000000E+00  0.00000000E+00  0.00000000E+00
  0.00000000E+00  0.00000000E+00  0.00000000E+00
  0.00000000E+00  0.00000000E+00  0.00000000E+00
  0.00000000E+00  0.00000000E+00  0.00000000E+00
  0.00000000E+00  0.00000000E+00  0.00000000E+00
  0.00000000E+00  0.00000000E+00  0.00000000E+00
  0.00000000E+00  0.00000000E+00  0.00000000E+00
  0.00000000E+00  0.00000000E+00  0.00000000E+00
  0.00000000E+00  0.00000000E+00  0.00000000E+00
  0.00000000E+00  0.00000000E+00  0.00000000E+00
  0.00000000E+00  0.00000000E+00  0.00000000E+00
  0.00000000E+00  0.00000000E+00  0.00000000E+00
  0.00000000E+00  0.00000000E+00  0.00000000E+00
  0.00000000E+00  0.00000000E+00  0.00000000E+00
  0.00000000E+00  0.00000000E+00  0.00000000E+00
  0.00000000E+00  0.00000000E+00  0.00000000E+00
  0.00000000E+00  0.00000000E+00  0.00000000E+00
  0.00000000E+00  0.00000000E+00  0.00000000E+00
  0.00000000E+00  0.00000000E+00  0.00000000E+00
  0.00000000E+00  0.00000000E+00  0.00000000E+00
  0.00000000E+00  0.00000000E+00  0.00000000E+00
  0.00000000E+00  0.00000000E+00  0.00000000E+00
  0.00000000E+00  0.00000000E+00  0.00000000E+00
  0.00000000E+00  0.00000000E+00  0.00000000E+00
  0.00000000E+00  0.00000000E+00  0.00000000E+00
  0.00000000E+00  0.00000000E+00  0.00000000E+00
  0.00000000E+00  0.00000000E+00  0.00000000E+00
  0.00000000E+00  0.00000000E+00  0.00000000E+00
  0.00000000E+00  0.00000000E+00  0.00000000E+00
  0.00000000E+00  0.00000000E+00  0.00000000E+00
  0.00000000E+00  0.00000000E+00  0.00000000E+00
  0.00000000E+00  0.00000000E+00  0.00000000E+00
  0.00000000E+00  0.00000000E+00  0.00000000E+00
  0.00000000E+00  0.00000000E+00  0.00000000E+00
  0.00000000E+00  0.00000000E+00  0.00000000E+00
  0.00000000E+00  0.00000000E+00  0.00000000E+00
  0.00000000E+00  0.00000000E+00  0.00000000E+00
  0.00000000E+00  0.00000000E+00  0.00000000E+00
  0.00000000E+00  0.00000000E+00  0.00000000E+00
  0.00000000E+00  0.00000000E+00  0.00000000E+00
  0.00000000E+00  0.00000000E+00  0.00000000E+00
  0.00000000E+00  0.00000000E+00  0.00000000E+00
  0.00000000E+00  0.00000000E+00  0.00000000E+00
  0.00000000E+00  0.00000000E+00  0.00000000E+00
  0.00000000E+00  0.00000000E+00  0.00000000E+00
  0.00000000E+00  0.00000000E+00  0.00000000E+00
  0.00000000E+00  0.00000000E+00  0.00000000E+00
