Mg4 O4
1.0
0.0000000000000000 4.2564840000000004 4.2564840000000004
2.1282420000000002 0.0000000000000000 2.1282420000000002
4.2564840000000004 4.2564840000000004 0.0000000000000000
Mg O
4 4
direct
0.01 0.01 0.0100000000000000 Mg
0.0000000000000000 0.0000000000000000 0.5000000000000000 Mg
0.5000000000000000 0.0000000000000000 0.0000000000000000 Mg
0.5000000000000000 0.0000000000000000 0.5000000000000000 Mg
0.7500000000000000 0.5000000000000000 0.2500000000000000 O
0.7500000000000000 0.5000000000000000 0.7500000000000000 O
0.2500000000000000 0.5000000000000000 0.2500000000000000 O
0.2500000000000000 0.5000000000000000 0.7500000000000000 O
