
%block lattice_cart
0.000000 5.468728 5.468728
2.734364 0.000000 2.734364
2.734364 2.734364 0.000000
%endblock lattice_cart

%block positions_abs
Si 1.367182 1.367182 4.101546
Si 2.734364 0.000000 0.000000
Si 1.367182 4.101546 6.835910
Si 2.734364 2.734364 2.734364
%endblock positions_abs

%block spectral_kpoint_list
0.0 0.0 0.0                    ! \Gamma
0.016666666666666666 0.0 0.0
0.03333333333333333 0.0 0.0
0.05 0.0 0.0
0.06666666666666667 0.0 0.0
0.08333333333333331 0.0 0.0
0.1 0.0 0.0
0.11666666666666665 0.0 0.0
0.13333333333333333 0.0 0.0
0.15 0.0 0.0
0.16666666666666663 0.0 0.0
0.18333333333333332 0.0 0.0
0.2 0.0 0.0
0.21666666666666665 0.0 0.0
0.2333333333333333 0.0 0.0
0.25 0.0 0.0
0.26666666666666666 0.0 0.0
0.28333333333333327 0.0 0.0
0.3 0.0 0.0
0.31666666666666665 0.0 0.0
0.33333333333333326 0.0 0.0
0.35 0.0 0.0
0.36666666666666664 0.0 0.0
0.3833333333333333 0.0 0.0
0.4 0.0 0.0
0.4166666666666667 0.0 0.0
0.4333333333333333 0.0 0.0
0.45 0.0 0.0
0.4666666666666666 0.0 0.0
0.4833333333333333 0.0 0.0
0.5 0.0 0.0                    ! X
%endblock spectral_kpoint_list
