#######################################################
#CASTEP cell file: Si_211.cell
#Created using the Atomic Simulation Environment (ASE)#
#######################################################

%BLOCK LATTICE_CART
 0.000000  5.468728  5.468728
 2.734364  0.000000  2.734364
 2.734364  2.734364  0.000000
%ENDBLOCK LATTICE_CART

%BLOCK POSITIONS_ABS
Si  1.367182  1.367182  4.101546
Si  2.734364  0.000000  0.000000
Si  1.367182  4.101546  6.835910
Si  2.734364  2.734364  2.734364
%ENDBLOCK POSITIONS_ABS
