Ag1 Te1
1.0
   0.0000000000000000    3.0399999999999991    3.0399999999999991
   3.0399999999999991    0.0000000000000000    3.0399999999999991
   3.0399999999999991    3.0399999999999991    0.0000000000000000
Ag Te
1 1
direct
   0.0000000000000000    0.0000000000000000    0.0000000000000000 Ag
  -0.5000000000000000    0.5000000000000000    0.5000000000000000 Te
