Mg32 O32                                
   1.0000000000000000     
     8.4956778156853243    0.0000000000000000    0.0000000000000005
     0.0000000000000014    8.4956778156853243    0.0000000000000005
     0.0000000000000000    0.0000000000000000    8.4956778156853243
   Mg   O 
    32    31
Direct
 -0.0016152928873958  0.0000000004519022 -0.0000000304511557
 -0.0004470891893580  0.0000000002440724  0.4999999849049174
 -0.0004470963464889  0.5000000003820025 -0.0000000157762507
 -0.0001242717548599  0.5000000001673265  0.4999999999882378
  0.5016152921322088 -0.0000000002388190  0.0000000309131150
  0.5004470890312867 -0.0000000002473308  0.5000000154341162
  0.5004470965562885  0.4999999997328700  0.0000000156407258
  0.5001242723572038  0.4999999995756366  0.5000000000322009
  0.0000507380994957  0.2499492631510444  0.2499492618162935
  0.0000507371406376  0.2499492622671484  0.7500507378909449
  0.0000507373551148  0.7500507374191385  0.2499492310443985
  0.0000507385411931  0.7500507380858783  0.7500507076006285
  0.4999492612830361  0.2499492617974806  0.2499492925122241
  0.4999492620682636  0.2499492630297730  0.7500507687923634
  0.4999492630796261  0.7500507376764577  0.2499492617809291
  0.4999492616560993  0.7500507364330650  0.7500507384254508
  0.2500000042560678  0.0000000043315887  0.2516152916212595
  0.2499999956587638 -0.0000000044907643  0.7483847083908655
  0.2500000017964669  0.4999999973354392  0.2504470936734289
  0.2499999985406116  0.5000000025575375  0.7495529061463079
  0.7499999977727252  0.0000000019471264  0.2504470932943654
  0.7500000023715055 -0.0000000017765640  0.7495529071335706
  0.7499999977941328  0.4999999980518836  0.2501242749239814
  0.7500000018871731  0.5000000021034884  0.7498757249837427
  0.2499999996151225  0.2516152922394923  0.0000000306396517
  0.2499999996351503  0.2504470895286053  0.5000000149781284
  0.2500000003970826  0.7483847078725963 -0.0000000308853073
  0.2500000001495071  0.7495529100969101  0.4999999847141553
  0.7499999995855989  0.2504470963290935  0.0000000158233011
  0.7499999997138936  0.2501242729988962  0.4999999998183328
  0.7500000004852855  0.7495529038693386 -0.0000000156280378
  0.7500000002257937  0.7498757269471876  0.5000000000525047
  0.2500000002518250 -0.0000000001318314  0.4999999998096785
  0.2499999996754202  0.5000000000329053 -0.0000000003335970
  0.2500000002943597  0.4999999993071257  0.5000000000062484
  0.7499999998590672  0.0000000004090528  0.0000000000315747
  0.7500000007459987 -0.0000000000842692  0.5000000003189782
  0.7500000002674118  0.5000000004382384  0.0000000002187511
  0.7500000002693797  0.5000000000739673  0.4999999998440059
  0.2499999847649344  0.2505865212939646  0.2505866081512477
  0.2500000146392703  0.2505865152186373  0.7494135832875659
  0.2499999856729801  0.7494134869120022  0.2505864147968282
  0.2500000155653697  0.7494134767033322  0.7494133938344512
  0.7500000157027233  0.2500208165046435  0.2500208349055497
  0.7499999838666327  0.2500208164195023  0.7499791846637647
  0.7500000162125698  0.7499791840655199  0.2500208139537837
  0.7499999842776361  0.7499791838167715  0.7499791642933600
 -0.0005865144611853 -0.0000000137145234  0.2505864168691576
 -0.0005865202746003  0.0000000148710407  0.7494133916645710
 -0.0000208161656895  0.5000000153361146  0.2500208129316928
 -0.0000208184187331  0.4999999856187035  0.7499791646542532
  0.5005865213526366 -0.0000000145176455  0.2505866072980524
  0.5005865124163376  0.0000000137350278  0.7494135841960151
  0.5000208187472617  0.5000000140999872  0.2500208357202199
  0.5000208141218522  0.4999999845702975  0.7499791882432641
 -0.0005865349926775  0.2505865374201298  0.0000000003963662
 -0.0000207981312287  0.2500207971190392  0.4999999994787988
 -0.0005865368330227  0.7494134639319439 -0.0000001904797182
 -0.0000207991909325  0.7499792021291962  0.4999999834324346
  0.5005865352578395  0.2505865380778226  0.0000001904483535
  0.5000207994508978  0.2500207981142631  0.5000000167556894
  0.5005865365728148  0.7494134608509536 -0.0000000006037848
  0.5000207994756105  0.7499792015085911  0.5000000009830502

  0.00000000E+00  0.00000000E+00  0.00000000E+00
  0.00000000E+00  0.00000000E+00  0.00000000E+00
  0.00000000E+00  0.00000000E+00  0.00000000E+00
  0.00000000E+00  0.00000000E+00  0.00000000E+00
  0.00000000E+00  0.00000000E+00  0.00000000E+00
  0.00000000E+00  0.00000000E+00  0.00000000E+00
  0.00000000E+00  0.00000000E+00  0.00000000E+00
  0.00000000E+00  0.00000000E+00  0.00000000E+00
  0.00000000E+00  0.00000000E+00  0.00000000E+00
  0.00000000E+00  0.00000000E+00  0.00000000E+00
  0.00000000E+00  0.00000000E+00  0.00000000E+00
  0.00000000E+00  0.00000000E+00  0.00000000E+00
  0.00000000E+00  0.00000000E+00  0.00000000E+00
  0.00000000E+00  0.00000000E+00  0.00000000E+00
  0.00000000E+00  0.00000000E+00  0.00000000E+00
  0.00000000E+00  0.00000000E+00  0.00000000E+00
  0.00000000E+00  0.00000000E+00  0.00000000E+00
  0.00000000E+00  0.00000000E+00  0.00000000E+00
  0.00000000E+00  0.00000000E+00  0.00000000E+00
  0.00000000E+00  0.00000000E+00  0.00000000E+00
  0.00000000E+00  0.00000000E+00  0.00000000E+00
  0.00000000E+00  0.00000000E+00  0.00000000E+00
  0.00000000E+00  0.00000000E+00  0.00000000E+00
  0.00000000E+00  0.00000000E+00  0.00000000E+00
  0.00000000E+00  0.00000000E+00  0.00000000E+00
  0.00000000E+00  0.00000000E+00  0.00000000E+00
  0.00000000E+00  0.00000000E+00  0.00000000E+00
  0.00000000E+00  0.00000000E+00  0.00000000E+00
  0.00000000E+00  0.00000000E+00  0.00000000E+00
  0.00000000E+00  0.00000000E+00  0.00000000E+00
  0.00000000E+00  0.00000000E+00  0.00000000E+00
  0.00000000E+00  0.00000000E+00  0.00000000E+00
  0.00000000E+00  0.00000000E+00  0.00000000E+00
  0.00000000E+00  0.00000000E+00  0.00000000E+00
  0.00000000E+00  0.00000000E+00  0.00000000E+00
  0.00000000E+00  0.00000000E+00  0.00000000E+00
  0.00000000E+00  0.00000000E+00  0.00000000E+00
  0.00000000E+00  0.00000000E+00  0.00000000E+00
  0.00000000E+00  0.00000000E+00  0.00000000E+00
  0.00000000E+00  0.00000000E+00  0.00000000E+00
  0.00000000E+00  0.00000000E+00  0.00000000E+00
  0.00000000E+00  0.00000000E+00  0.00000000E+00
  0.00000000E+00  0.00000000E+00  0.00000000E+00
  0.00000000E+00  0.00000000E+00  0.00000000E+00
  0.00000000E+00  0.00000000E+00  0.00000000E+00
  0.00000000E+00  0.00000000E+00  0.00000000E+00
  0.00000000E+00  0.00000000E+00  0.00000000E+00
  0.00000000E+00  0.00000000E+00  0.00000000E+00
  0.00000000E+00  0.00000000E+00  0.00000000E+00
  0.00000000E+00  0.00000000E+00  0.00000000E+00
  0.00000000E+00  0.00000000E+00  0.00000000E+00
  0.00000000E+00  0.00000000E+00  0.00000000E+00
  0.00000000E+00  0.00000000E+00  0.00000000E+00
  0.00000000E+00  0.00000000E+00  0.00000000E+00
  0.00000000E+00  0.00000000E+00  0.00000000E+00
  0.00000000E+00  0.00000000E+00  0.00000000E+00
  0.00000000E+00  0.00000000E+00  0.00000000E+00
  0.00000000E+00  0.00000000E+00  0.00000000E+00
  0.00000000E+00  0.00000000E+00  0.00000000E+00
  0.00000000E+00  0.00000000E+00  0.00000000E+00
  0.00000000E+00  0.00000000E+00  0.00000000E+00
  0.00000000E+00  0.00000000E+00  0.00000000E+00
  0.00000000E+00  0.00000000E+00  0.00000000E+00
