Mg  O 
 1.0000000000000000
     8.5129680000000008    0.0000000000000000    0.0000000000000000
     0.0000000000000000    8.5129680000000008    0.0000000000000000
     0.0000000000000000    0.0000000000000000    8.5129680000000008
 Mg  O  
  32  31
Cartesian
  0.0000000000000000  0.0000000000000000  0.0000000000000000
  0.0000000000000000  2.1282420000000002  2.1282420000000002
  2.1282420000000002  0.0000000000000000  2.1282420000000002
  2.1282420000000002  2.1282420000000002  0.0000000000000000
  0.0000000000000000  0.0000000000000000  4.2564840000000004
  0.0000000000000000  2.1282420000000002  6.3847260000000006
  2.1282420000000002  0.0000000000000000  6.3847260000000006
  2.1282420000000002  2.1282420000000002  4.2564840000000004
  0.0000000000000000  4.2564840000000004  0.0000000000000000
  0.0000000000000000  6.3847260000000006  2.1282420000000002
  2.1282420000000002  4.2564840000000004  2.1282420000000002
  2.1282420000000002  6.3847260000000006  0.0000000000000000
  0.0000000000000000  4.2564840000000004  4.2564840000000004
  0.0000000000000000  6.3847260000000006  6.3847260000000006
  2.1282420000000002  4.2564840000000004  6.3847260000000006
  2.1282420000000002  6.3847260000000006  4.2564840000000004
  4.2564840000000004  0.0000000000000000  0.0000000000000000
  4.2564840000000004  2.1282420000000002  2.1282420000000002
  6.3847260000000006  0.0000000000000000  2.1282420000000002
  6.3847260000000006  2.1282420000000002  0.0000000000000000
  4.2564840000000004  0.0000000000000000  4.2564840000000004
  4.2564840000000004  2.1282420000000002  6.3847260000000006
  6.3847260000000006  0.0000000000000000  6.3847260000000006
  6.3847260000000006  2.1282420000000002  4.2564840000000004
  4.2564840000000004  4.2564840000000004  0.0000000000000000
  4.2564840000000004  6.3847260000000006  2.1282420000000002
  6.3847260000000006  4.2564840000000004  2.1282420000000002
  6.3847260000000006  6.3847260000000006  0.0000000000000000
  4.2564840000000004  4.2564840000000004  4.2564840000000004
  4.2564840000000004  6.3847260000000006  6.3847260000000006
  6.3847260000000006  4.2564840000000004  6.3847260000000006
  6.3847260000000006  6.3847260000000006  4.2564840000000004
  2.1282420000000002  2.1282420000000002  2.1282420000000002
  0.0000000000000000  0.0000000000000000  2.1282420000000002
  0.0000000000000000  2.1282420000000002  0.0000000000000000
  2.1282420000000002  0.0000000000000000  4.2564840000000004
  2.1282420000000002  2.1282420000000002  6.3847260000000006
  0.0000000000000000  0.0000000000000000  6.3847260000000006
  0.0000000000000000  2.1282420000000002  4.2564840000000004
  2.1282420000000002  4.2564840000000004  0.0000000000000000
  2.1282420000000002  6.3847260000000006  2.1282420000000002
  0.0000000000000000  4.2564840000000004  2.1282420000000002
  0.0000000000000000  6.3847260000000006  0.0000000000000000
  2.1282420000000002  4.2564840000000004  4.2564840000000004
  2.1282420000000002  6.3847260000000006  6.3847260000000006
  0.0000000000000000  4.2564840000000004  6.3847260000000006
  0.0000000000000000  6.3847260000000006  4.2564840000000004
  6.3847260000000006  0.0000000000000000  0.0000000000000000
  6.3847260000000006  2.1282420000000002  2.1282420000000002
  4.2564840000000004  0.0000000000000000  2.1282420000000002
  4.2564840000000004  2.1282420000000002  0.0000000000000000
  6.3847260000000006  0.0000000000000000  4.2564840000000004
  6.3847260000000006  2.1282420000000002  6.3847260000000006
  4.2564840000000004  0.0000000000000000  6.3847260000000006
  4.2564840000000004  2.1282420000000002  4.2564840000000004
  6.3847260000000006  4.2564840000000004  0.0000000000000000
  6.3847260000000006  6.3847260000000006  2.1282420000000002
  4.2564840000000004  4.2564840000000004  2.1282420000000002
  4.2564840000000004  6.3847260000000006  0.0000000000000000
  6.3847260000000006  4.2564840000000004  4.2564840000000004
  6.3847260000000006  6.3847260000000006  6.3847260000000006
  4.2564840000000004  4.2564840000000004  6.3847260000000006
  4.2564840000000004  6.3847260000000006  4.2564840000000004
