\Gamma -> L -> W -> X -> \Gamma
73
Reciprocal
0.0 0.0 0.0 1 \Gamma
0.025 0.025 0.025 1 
0.05 0.05 0.05 1 
0.075 0.075 0.075 1 
0.1 0.1 0.1 1 
0.125 0.125 0.125 1 
0.15 0.15 0.15 1 
0.175 0.175 0.175 1 
0.2 0.2 0.2 1 
0.225 0.225 0.225 1 
0.25 0.25 0.25 1 
0.275 0.275 0.275 1 
0.3 0.3 0.3 1 
0.325 0.325 0.325 1 
0.35 0.35 0.35 1 
0.375 0.375 0.375 1 
0.4 0.4 0.4 1 
0.425 0.425 0.425 1 
0.45 0.45 0.45 1 
0.4749999999999999 0.4749999999999999 0.4749999999999999 1 
0.5 0.5 0.5 1 L
0.49999999999999994 0.4852941176470588 0.5147058823529411 1 
0.5 0.47058823529411764 0.5294117647058824 1 
0.5 0.45588235294117646 0.5441176470588236 1 
0.5 0.4411764705882353 0.5588235294117647 1 
0.49999999999999994 0.4264705882352941 0.5735294117647058 1 
0.49999999999999994 0.4117647058823529 0.588235294117647 1 
0.5 0.3970588235294118 0.6029411764705882 1 
0.5 0.38235294117647056 0.6176470588235294 1 
0.49999999999999994 0.3676470588235294 0.6323529411764706 1 
0.49999999999999994 0.3529411764705882 0.6470588235294117 1 
0.5 0.338235294117647 0.661764705882353 1 
0.49999999999999994 0.32352941176470584 0.6764705882352942 1 
0.5 0.3088235294117647 0.6911764705882353 1 
0.49999999999999994 0.29411764705882354 0.7058823529411764 1 
0.5 0.27941176470588236 0.7205882352941176 1 
0.4999999999999999 0.2647058823529412 0.7352941176470587 1 
0.5 0.25 0.75 1 W
0.5 0.22916666666666666 0.7291666666666666 1 
0.5 0.20833333333333334 0.7083333333333334 1 
0.5 0.1875 0.6875 1 
0.5 0.16666666666666666 0.6666666666666666 1 
0.5 0.14583333333333331 0.6458333333333333 1 
0.5 0.125 0.625 1 
0.5 0.10416666666666664 0.6041666666666666 1 
0.5 0.08333333333333334 0.5833333333333334 1 
0.5 0.0625 0.5625 1 
0.5 0.04166666666666665 0.5416666666666666 1 
0.5 0.020833333333333325 0.5208333333333334 1 
0.5 0.0 0.5 1 X
0.47826086956521735 0.0 0.47826086956521735 1 
0.4565217391304348 0.0 0.4565217391304348 1 
0.43478260869565216 0.0 0.43478260869565216 1 
0.4130434782608695 0.0 0.4130434782608695 1 
0.391304347826087 0.0 0.391304347826087 1 
0.3695652173913043 0.0 0.3695652173913043 1 
0.34782608695652173 0.0 0.34782608695652173 1 
0.3260869565217391 0.0 0.3260869565217391 1 
0.3043478260869565 0.0 0.3043478260869565 1 
0.28260869565217395 0.0 0.28260869565217395 1 
0.2608695652173913 0.0 0.2608695652173913 1 
0.23913043478260868 0.0 0.23913043478260868 1 
0.21739130434782608 0.0 0.21739130434782608 1 
0.19565217391304346 0.0 0.19565217391304346 1 
0.17391304347826086 0.0 0.17391304347826086 1 
0.1521739130434783 0.0 0.1521739130434783 1 
0.13043478260869565 0.0 0.13043478260869565 1 
0.10869565217391301 0.0 0.10869565217391301 1 
0.08695652173913043 0.0 0.08695652173913043 1 
0.06521739130434785 0.0 0.06521739130434785 1 
0.043478260869565265 0.0 0.043478260869565265 1 
0.021739130434782632 0.0 0.021739130434782632 1 
0.0 0.0 0.0 1 \Gamma
