v_O ~[0.3750,0.3750,0.6250] 0
1.0
   8.4956800000000001   -4.2478400000000001   -4.2478400000000001
  -4.2478400000000001    8.4956800000000001   -4.2478400000000001
   4.2478400000000001    4.2478400000000001    8.4956800000000001
Mg O
48 47
direct
   0.8333330000000000    0.1666670000000000    0.0000000000000000 Mg
   0.9166670000000000    0.0833330000000000    0.2500000000000000 Mg
   0.8333330000000000    0.6666670000000000    0.0000000000000000 Mg
   0.6666670000000000    0.3333330000000000    0.0000000000000000 Mg
   0.9166670000000000    0.5833330000000000    0.2500000000000000 Mg
   0.5000000000000000    0.0000000000000000    0.0000000000000000 Mg
   0.7500000000000000    0.2500000000000000    0.2500000000000000 Mg
   0.8333330000000000    0.1666670000000000    0.5000000000000000 Mg
   0.9166670000000000    0.0833330000000000    0.7500000000000000 Mg
   0.6666670000000000    0.8333330000000000    0.0000000000000000 Mg
   0.5000000000000000    0.5000000000000000    0.0000000000000000 Mg
   0.7500000000000000    0.7500000000000000    0.2500000000000000 Mg
   0.3333330000000000    0.1666670000000000    0.0000000000000000 Mg
   0.5833330000000000    0.4166670000000000    0.2500000000000000 Mg
   0.8333330000000000    0.6666670000000000    0.5000000000000000 Mg
   0.4166670000000000    0.0833330000000000    0.2500000000000000 Mg
   0.6666670000000000    0.3333330000000000    0.5000000000000000 Mg
   0.9166670000000000    0.5833330000000000    0.7500000000000000 Mg
   0.5000000000000000    0.0000000000000000    0.5000000000000000 Mg
   0.7500000000000000    0.2500000000000000    0.7500000000000000 Mg
   0.3333330000000000    0.6666670000000000    0.0000000000000000 Mg
   0.5833330000000000    0.9166670000000000    0.2500000000000000 Mg
   0.1666670000000000    0.3333330000000000    0.0000000000000000 Mg
   0.4166670000000000    0.5833330000000000    0.2500000000000000 Mg
   0.6666670000000000    0.8333330000000000    0.5000000000000000 Mg
   0.0000000000000000    0.0000000000000000    0.0000000000000000 Mg
   0.2500000000000000    0.2500000000000000    0.2500000000000000 Mg
   0.5000000000000000    0.5000000000000000    0.5000000000000000 Mg
   0.7500000000000000    0.7500000000000000    0.7500000000000000 Mg
   0.3333330000000000    0.1666670000000000    0.5000000000000000 Mg
   0.5833330000000000    0.4166670000000000    0.7500000000000000 Mg
   0.4166670000000000    0.0833330000000000    0.7500000000000000 Mg
   0.1666670000000000    0.8333330000000000    0.0000000000000000 Mg
   0.0000000000000000    0.5000000000000000    0.0000000000000000 Mg
   0.2500000000000000    0.7500000000000000    0.2500000000000000 Mg
   0.0833330000000000    0.4166670000000000    0.2500000000000000 Mg
   0.3333330000000000    0.6666670000000000    0.5000000000000000 Mg
   0.5833330000000000    0.9166670000000000    0.7500000000000000 Mg
   0.1666670000000000    0.3333330000000000    0.5000000000000000 Mg
   0.4166670000000000    0.5833330000000000    0.7500000000000000 Mg
   0.0000000000000000    0.0000000000000000    0.5000000000000000 Mg
   0.2500000000000000    0.2500000000000000    0.7500000000000000 Mg
   0.0833330000000000    0.9166670000000000    0.2500000000000000 Mg
   0.1666670000000000    0.8333330000000000    0.5000000000000000 Mg
   0.0000000000000000    0.5000000000000000    0.5000000000000000 Mg
   0.2500000000000000    0.7500000000000000    0.7500000000000000 Mg
   0.0833330000000000    0.4166670000000000    0.7500000000000000 Mg
   0.0833330000000000    0.9166670000000000    0.7500000000000000 Mg
   0.9583330000000000    0.2916670000000000    0.3750000000000000 O
   0.0416670000000000    0.2083330000000000    0.6250000000000000 O
   0.9583330000000000    0.7916670000000000    0.3750000000000000 O
   0.7916670000000000    0.4583330000000000    0.3750000000000000 O
   0.0416670000000000    0.7083330000000000    0.6250000000000000 O
   0.6250000000000000    0.1250000000000000    0.3750000000000000 O
   0.8750000000000000    0.3750000000000000    0.6250000000000000 O
   0.9583330000000000    0.2916670000000000    0.8750000000000000 O
   0.0416670000000000    0.2083330000000000    0.1250000000000000 O
   0.7916670000000000    0.9583330000000000    0.3750000000000000 O
   0.6250000000000000    0.6250000000000000    0.3750000000000000 O
   0.8750000000000000    0.8750000000000000    0.6250000000000000 O
   0.4583330000000000    0.2916670000000000    0.3750000000000000 O
   0.7083330000000000    0.5416670000000000    0.6250000000000000 O
   0.9583330000000000    0.7916670000000000    0.8750000000000000 O
   0.5416670000000000    0.2083330000000000    0.6250000000000000 O
   0.7916670000000000    0.4583330000000000    0.8750000000000000 O
   0.0416670000000000    0.7083330000000000    0.1250000000000000 O
   0.6250000000000000    0.1250000000000000    0.8750000000000000 O
   0.8750000000000000    0.3750000000000000    0.1250000000000000 O
   0.4583330000000000    0.7916670000000000    0.3750000000000000 O
   0.7083330000000000    0.0416670000000000    0.6250000000000000 O
   0.2916670000000000    0.4583330000000000    0.3750000000000000 O
   0.5416670000000000    0.7083330000000000    0.6250000000000000 O
   0.7916670000000000    0.9583330000000000    0.8750000000000000 O
   0.1250000000000000    0.1250000000000000    0.3750000000000000 O
   0.6250000000000000    0.6250000000000000    0.8750000000000000 O
   0.8750000000000000    0.8750000000000000    0.1250000000000000 O
   0.4583330000000000    0.2916670000000000    0.8750000000000000 O
   0.7083330000000000    0.5416670000000000    0.1250000000000000 O
   0.5416670000000000    0.2083330000000000    0.1250000000000000 O
   0.2916670000000000    0.9583330000000000    0.3750000000000000 O
   0.1250000000000000    0.6250000000000000    0.3750000000000000 O
   0.3750000000000000    0.8750000000000000    0.6250000000000000 O
   0.2083330000000000    0.5416670000000000    0.6250000000000000 O
   0.4583330000000000    0.7916670000000000    0.8750000000000000 O
   0.7083330000000000    0.0416670000000000    0.1250000000000000 O
   0.2916670000000000    0.4583330000000000    0.8750000000000000 O
   0.5416670000000000    0.7083330000000000    0.1250000000000000 O
   0.1250000000000000    0.1250000000000000    0.8750000000000000 O
   0.3750000000000000    0.3750000000000000    0.1250000000000000 O
   0.2083330000000000    0.0416670000000000    0.6250000000000000 O
   0.2916670000000000    0.9583330000000000    0.8750000000000000 O
   0.1250000000000000    0.6250000000000000    0.8750000000000000 O
   0.3750000000000000    0.8750000000000000    0.1250000000000000 O
   0.2083330000000000    0.5416670000000000    0.1250000000000000 O
   0.2083330000000000    0.0416670000000000    0.1250000000000000 O
