
%block lattice_cart
0.000000 2.734364 2.734364
2.734364 0.000000 2.734364
2.734364 2.734364 0.000000
%endblock lattice_cart

%block positions_frac
Si 0.750000 0.750000 -0.250000
Si -0.500000 0.500000 0.500000
%endblock positions_frac

%block spectral_kpoint_list
0.0 0.0 0.0                    ! \Gamma
0.025 0.0 0.0
0.05 0.0 0.0
0.075 0.0 0.0
0.1 0.0 0.0
0.125 0.0 0.0
0.15 0.0 0.0
0.175 0.0 0.0
0.2 0.0 0.0
0.225 0.0 0.0
0.25 0.0 0.0
0.275 0.0 0.0
0.3 0.0 0.0
0.325 0.0 0.0
0.35 0.0 0.0
0.375 0.0 0.0
0.4 0.0 0.0
0.425 0.0 0.0
0.45 0.0 0.0
0.4749999999999999 0.0 0.0
0.5 0.0 0.0                    ! X
%endblock spectral_kpoint_list
