ALGO = Fast
EDIFF = 0.0004
ENCUT = 250
IBRION = 2
ISIF = 3
ISPIN = 1
LASPH = True
LORBIT = 11
LREAL = Auto
LWAVE = False
NELM = 100
NSW = 1
PREC = Accurate
SIGMA = 0.05
LCHARG = .TRUE.
! NSCF
ICHARG = 11
