\Gamma -> L -> W -> X -> \Gamma
10
Reciprocal
0.0 0.0 0.0 1 \Gamma
0.25 0.25 0.25 1
0.5 0.5 0.5 1 L
0.5 0.375 0.625 1
0.5 0.25 0.75 1 W
0.5 0.125 0.625 1
0.5 0.0 0.5 1 X
0.3333333333333333 0.0 0.3333333333333333 1
0.16666666666666669 0.0 0.16666666666666669 1
0.0 0.0 0.0 1 \Gamma
