
%block lattice_cart
0.000000 2.734364 2.734364
2.734364 0.000000 2.734364
2.734364 2.734364 0.000000
%endblock lattice_cart

%block positions_frac
Si 0.750000 0.750000 -0.250000
Si -0.500000 0.500000 0.500000
%endblock positions_frac

%block spectral_kpoint_list
0.0 0.0 0.0                    ! \Gamma
0.008333333333333333 0.0 0.0
0.016666666666666666 0.0 0.0
0.025 0.0 0.0
0.03333333333333333 0.0 0.0
0.04166666666666666 0.0 0.0
0.05 0.0 0.0
0.05833333333333333 0.0 0.0
0.06666666666666667 0.0 0.0
0.075 0.0 0.0
0.08333333333333331 0.0 0.0
0.09166666666666666 0.0 0.0
0.1 0.0 0.0
0.10833333333333332 0.0 0.0
0.11666666666666665 0.0 0.0
0.125 0.0 0.0
0.13333333333333333 0.0 0.0
0.14166666666666664 0.0 0.0
0.15 0.0 0.0
0.15833333333333333 0.0 0.0
0.16666666666666663 0.0 0.0
0.175 0.0 0.0
0.18333333333333332 0.0 0.0
0.19166666666666665 0.0 0.0
0.2 0.0 0.0
0.20833333333333334 0.0 0.0
0.21666666666666665 0.0 0.0
0.225 0.0 0.0
0.2333333333333333 0.0 0.0
0.24166666666666664 0.0 0.0
0.25 0.0 0.0
0.2583333333333333 0.0 0.0
0.26666666666666666 0.0 0.0
0.275 0.0 0.0
0.28333333333333327 0.0 0.0
0.2916666666666667 0.0 0.0
0.3 0.0 0.0
0.3083333333333333 0.0 0.0
0.31666666666666665 0.0 0.0
0.325 0.0 0.0
0.33333333333333326 0.0 0.0
0.3416666666666667 0.0 0.0
0.35 0.0 0.0
0.3583333333333333 0.0 0.0
0.36666666666666664 0.0 0.0
0.375 0.0 0.0
0.3833333333333333 0.0 0.0
0.39166666666666666 0.0 0.0
0.4 0.0 0.0
0.40833333333333327 0.0 0.0
0.4166666666666667 0.0 0.0
0.425 0.0 0.0
0.4333333333333333 0.0 0.0
0.44166666666666665 0.0 0.0
0.45 0.0 0.0
0.4583333333333333 0.0 0.0
0.4666666666666666 0.0 0.0
0.4749999999999999 0.0 0.0
0.4833333333333333 0.0 0.0
0.4916666666666666 0.0 0.0
0.5 0.0 0.0                    ! X
%endblock spectral_kpoint_list
