ALGO = normal
IBRION = -1
NBANDS = 20
EDIFF = 1e-6
NELMIN = 10
ENCUT = 450
ISPIN = 1
LASPH = True
LREAL = Auto
LWAVE = .TRUE.
NELM = 100
NSW = 1
PREC = normal
SIGMA = 0.05
LCHARG = .TRUE.
KPAR = 4
NEDOS=2000
! NSCF
! ICHARG = 11
LORBIT = 11

