\Gamma -> L -> W -> X -> \Gamma
48
Reciprocal
0.0 0.0 0.0 1 \Gamma
0.03846153846153847 0.038461538461538464 0.03846153846153847 1 
0.07692307692307694 0.07692307692307693 0.07692307692307694 1 
0.1153846153846154 0.1153846153846154 0.11538461538461542 1 
0.15384615384615388 0.15384615384615385 0.15384615384615388 1 
0.19230769230769235 0.19230769230769235 0.19230769230769235 1 
0.2307692307692308 0.2307692307692308 0.23076923076923084 1 
0.2692307692307692 0.2692307692307692 0.2692307692307692 1 
0.30769230769230776 0.3076923076923077 0.30769230769230776 1 
0.34615384615384615 0.34615384615384615 0.3461538461538462 1 
0.3846153846153847 0.3846153846153847 0.3846153846153847 1 
0.4230769230769231 0.42307692307692313 0.42307692307692313 1 
0.4615384615384616 0.4615384615384616 0.4615384615384617 1 
0.5 0.5 0.5 1 L
0.5 0.4772727272727273 0.5227272727272727 1 
0.5 0.4545454545454546 0.5454545454545454 1 
0.5 0.4318181818181819 0.5681818181818182 1 
0.5 0.4090909090909091 0.5909090909090909 1 
0.5 0.38636363636363635 0.6136363636363636 1 
0.5 0.36363636363636365 0.6363636363636364 1 
0.5 0.34090909090909094 0.6590909090909092 1 
0.5 0.3181818181818182 0.6818181818181819 1 
0.5 0.29545454545454547 0.7045454545454546 1 
0.5 0.27272727272727276 0.7272727272727273 1 
0.5 0.25 0.75 1 W
0.5 0.21875000000000003 0.71875 1 
0.5 0.1875 0.6875 1 
0.5 0.15625 0.65625 1 
0.5 0.12500000000000003 0.625 1 
0.5 0.09375000000000003 0.59375 1 
0.5 0.0625 0.5625 1 
0.5 0.03125000000000003 0.53125 1 
0.5 0.0 0.5 1 X
0.4666666666666667 2.7755575615628914e-17 0.46666666666666673 1 
0.43333333333333335 2.7755575615628914e-17 0.4333333333333334 1 
0.4 0.0 0.4000000000000001 1 
0.36666666666666664 0.0 0.3666666666666667 1 
0.33333333333333337 2.7755575615628914e-17 0.33333333333333337 1 
0.3 -2.7755575615628914e-17 0.3 1 
0.26666666666666666 2.7755575615628914e-17 0.2666666666666667 1 
0.23333333333333334 1.3877787807814457e-17 0.23333333333333336 1 
0.2 0.0 0.20000000000000004 1 
0.1666666666666667 2.7755575615628914e-17 0.1666666666666667 1 
0.13333333333333336 2.7755575615628914e-17 0.1333333333333334 1 
0.09999999999999998 -6.938893903907228e-18 0.09999999999999998 1 
0.06666666666666662 -2.7755575615628914e-17 0.06666666666666664 1 
0.03333333333333334 0.0 0.03333333333333333 1 
0.0 0.0 0.0 1 \Gamma
